=====UNKNOWN=====
% time elapsed: 1800.22 s
%%%mzn-stat: initTime=0.048402239
%%%mzn-stat: nodes=3479105
%%%mzn-stat: restarts=2458
%%%mzn-stat: peakDepth=926
%%%mzn-stat: solveTime=1798.605705021
%%%mzn-stat: variables=3406
%%%mzn-stat: propagators=2957
%%%mzn-stat: failures=1634179
%%%mzn-stat: propagations=106424334
%%%mzn-stat: nogoods=1634179
%%%mzn-stat: AverageConflictSize=33.90102247061063
%%%mzn-stat: NumUnitNogoodsLearned=184
%%%mzn-stat: AverageLearnedNogoodLength=52.043125630668364
%%%mzn-stat: AverageBacktrackAmount=0
%%%mzn-stat: AverageLbd=25.747642700095888
%%%mzn-stat-end
